c status 153 1469274802093
c status 110 1469274802096
c status 108 1469274802222
c status 107 1469274802505
c status 105 1469274807966
c status 104 1469274853518
s td 140 104 250
b 1 99 62 14
b 2 64 151 109
b 3 242 230 195
b 4 70 11 143 136 7 67 123
b 5 11 53 26 187 188 143 217 136 219 7 67 166 211 123 244 18
b 6 39 53 162 143 33 8 28 102 220 148
b 7 53 231 26 162 187 188 143 33 126 8 28 217 245 102 163 136 203 220 219 7 67 166 211 148 123 244 18
b 8 231 87 179 26 162 187 188 143 33 126 8 28 217 131 245 102 163 136 203 105 220 219 7 67 200 117 109 166 211 148 123 244 18
b 9 172 87 223 195 52 248 244
b 10 87 165 179 26 162 187 188 143 14 33 126 8 28 217 131 245 102 163 136 223 145 203 105 195 220 219 7 67 200 117 109 80 166 52 211 148 123 248 244 18
b 11 236 165 101 69 145 67 133 244
b 12 165 83 179 26 162 187 146 188 143 14 33 126 8 31 84 28 217 131 245 102 101 163 136 69 223 145 203 105 195 220 219 7 67 200 117 133 109 80 166 52 211 58 148 158 123 248 244 18
b 13 83 206 179 6 26 162 187 146 188 143 14 44 33 126 8 31 84 28 217 131 245 102 101 163 136 86 69 223 145 203 105 178 195 220 219 7 67 200 117 133 109 80 166 52 211 58 194 148 158 123 248 244 150 18
b 14 206 170 179 6 26 162 187 146 188 137 143 14 44 33 126 8 31 84 28 217 131 245 102 101 163 136 86 69 223 43 145 203 105 178 54 195 220 219 7 67 200 117 133 109 36 80 166 52 211 58 194 148 158 212 123 248 244 150 18
b 15 170 139 179 6 26 162 187 146 188 137 143 14 44 33 126 8 31 84 28 217 131 245 102 101 163 136 86 69 223 43 145 203 105 178 54 195 220 219 155 7 67 200 117 133 109 36 80 166 52 211 58 194 148 158 212 123 248 244 150 18
b 16 139 179 6 26 162 187 146 188 137 143 14 44 33 126 8 31 84 28 217 131 245 102 101 163 136 86 69 223 43 116 145 203 105 178 54 195 220 219 155 7 67 200 117 133 109 36 80 166 52 211 58 194 148 158 212 123 248 244 150 18
b 17 51 233 162 190 116 201 148 123
b 18 233 10 162 14 48 9 115 190 116 219 106 201 148 123
b 19 37 122 14 115 1 105 140 222 158 248
b 20 122 10 137 14 33 115 132 217 1 105 140 193 220 222 92 98 158 248
b 21 100 224 26 78 9 245 79 199 17
b 22 224 228 26 146 78 9 126 245 136 43 79 209 199 17 212
b 23 228 249 26 146 78 9 126 28 245 136 43 79 209 199 17 194 212
b 24 173 55 6 43 109 36 166
b 25 55 171 6 188 190 65 43 195 109 36 166
b 26 171 177 6 188 78 44 190 65 43 195 109 36 166
b 27 177 249 6 187 188 78 44 48 56 190 65 86 69 43 203 195 109 36 166
b 28 249 10 6 26 187 146 188 78 44 48 9 126 56 28 190 65 245 136 86 69 43 203 79 195 219 209 141 199 17 109 36 166 194 212 110
b 29 10 50 6 26 162 187 146 188 137 14 78 44 33 48 9 126 115 132 56 28 190 65 217 245 136 86 69 1 43 116 203 79 105 178 140 193 195 220 219 209 141 199 17 222 106 109 36 92 166 98 194 201 148 158 212 123 248 110
b 30 50 85 179 6 26 162 187 146 188 137 14 78 44 33 48 9 126 115 132 56 28 190 65 217 245 136 86 69 1 43 116 203 79 105 178 140 193 195 220 219 204 209 141 199 17 222 106 109 36 92 166 98 194 201 148 158 212 123 248 110
b 31 85 179 6 26 162 187 146 188 137 14 78 44 33 48 9 126 115 132 56 28 190 65 217 245 136 86 69 1 43 116 145 203 79 105 178 140 193 195 220 219 155 204 209 141 199 17 222 106 29 109 36 92 166 98 229 194 201 148 158 212 123 248 110
b 32 24 179 159 229 123
b 33 151 6 115 132 227 182 109
b 34 179 6 26 162 187 146 188 137 143 14 78 44 33 48 9 126 115 132 8 31 56 84 28 190 65 217 131 210 245 102 101 163 136 86 69 1 223 43 116 145 203 79 105 178 140 193 54 195 220 219 155 7 204 209 141 199 67 200 117 17 133 222 106 29 159 109 36 80 92 166 52 98 229 211 58 194 201 148 158 212 123 248 244 150 110 18
b 35 6 26 162 187 146 188 137 143 14 78 44 33 48 9 126 115 132 8 31 227 56 84 28 190 65 217 131 210 245 74 102 101 163 136 86 69 1 223 43 116 145 203 79 105 178 140 193 54 195 220 219 155 7 204 209 167 141 199 67 200 117 17 133 222 106 29 182 159 109 36 80 92 166 52 98 229 211 58 194 201 148 158 212 123 248 244 150 110 18
b 36 62 21 14 227
b 37 234 192 162 48 245 133 98
b 38 127 124 235 129 232
b 39 160 4 162 187 245 232 166 123
b 40 4 124 250 162 187 14 227 245 161 7 200 232 166 123
b 41 124 192 250 3 119 162 187 188 14 235 8 227 154 245 161 153 168 7 129 200 93 232 166 123 197
b 42 192 21 250 3 119 162 187 146 188 14 48 235 126 8 227 154 28 245 161 1 153 220 168 7 129 200 93 133 232 166 98 123 197
b 43 21 176 250 3 119 162 187 146 188 14 48 235 126 8 227 154 28 217 245 161 1 153 79 220 168 7 221 129 200 93 133 232 77 166 98 123 197
b 44 176 144 250 3 119 162 187 146 188 14 33 48 235 126 8 31 227 154 28 217 245 161 1 153 79 220 168 7 141 221 129 200 93 133 232 77 166 98 123 197 248
b 45 144 250 3 119 162 187 146 188 143 14 33 48 235 126 8 31 227 154 28 217 245 161 1 153 79 220 168 7 141 221 129 200 93 133 232 77 166 98 229 123 198 197 248
b 46 215 107 187 137 126 42
b 47 107 23 250 3 119 187 137 126 131 245 42
b 48 23 22 250 3 119 187 137 126 131 245 208 133 42
b 49 138 196 78 48 154 219
b 50 142 88 250 3 42 92
b 51 49 135 250 101 93 244
b 52 135 88 250 146 190 101 178 93 29 232 244
b 53 88 205 250 3 146 188 44 28 190 101 153 178 168 93 29 42 232 92 244
b 54 63 205 28 105
b 55 205 196 250 3 146 188 44 31 28 190 101 153 105 178 168 93 29 42 182 232 92 211 248 244
b 56 196 22 250 3 119 146 188 78 44 48 31 154 28 190 101 153 105 178 193 168 219 204 93 29 42 182 232 92 211 248 244
b 57 60 22 130 109 98
b 58 38 22 34 65 208 155 141
b 59 22 61 250 3 119 187 146 188 137 78 44 48 126 34 31 154 28 190 65 131 245 101 208 130 153 105 178 193 168 219 155 204 141 93 133 29 42 182 232 109 36 92 98 211 248 244
b 60 61 250 3 119 187 146 188 137 78 44 48 126 34 31 154 28 190 65 131 245 101 208 130 153 105 178 193 168 219 155 204 141 221 93 133 29 42 182 232 109 36 92 52 98 211 58 248 244
b 61 250 3 119 162 187 146 188 137 143 14 78 44 33 48 235 126 34 8 31 227 154 28 190 65 217 131 245 101 69 161 181 1 208 130 153 79 105 178 193 220 168 219 155 7 204 141 221 129 200 93 133 29 42 182 232 109 36 92 77 166 52 98 229 211 58 123 198 197 248 244
b 62 3 119 162 187 146 188 137 143 14 78 44 33 48 235 126 34 132 8 31 227 154 28 190 65 217 131 245 101 163 136 69 161 181 1 208 130 153 79 105 178 193 220 168 219 155 7 204 167 141 221 129 200 93 133 222 29 42 182 232 109 36 92 77 166 52 98 229 211 58 123 198 197 248 244
b 63 162 187 146 188 137 143 14 78 44 33 48 235 9 126 115 34 132 8 31 227 154 56 84 28 190 65 217 131 210 245 74 102 101 163 136 86 69 161 181 1 223 43 208 130 116 145 203 153 79 105 178 140 193 54 195 220 168 219 155 7 204 209 167 141 199 221 67 129 200 117 17 93 133 222 106 29 42 182 232 159 109 36 80 92 77 166 52 98 229 211 58 194 201 148 158 212 123 198 197 248 244 150 110 18
b 64 187 146 188 137 143 14 78 44 33 48 235 9 126 115 34 132 8 31 227 154 56 84 28 190 65 217 131 210 245 74 102 101 163 136 86 69 161 181 1 223 43 208 130 116 145 203 153 79 105 178 140 193 54 195 220 168 219 155 7 204 209 167 141 240 199 221 67 129 200 117 17 93 133 222 106 29 42 182 232 159 109 36 80 92 77 166 52 98 229 211 58 194 201 148 158 212 123 198 197 248 244 150 110 18
b 65 137 143 14 78 44 33 48 235 9 126 115 34 132 8 31 227 154 56 84 72 28 190 65 217 131 210 245 74 102 101 163 136 86 69 161 181 1 223 43 208 130 116 145 203 153 79 105 178 140 193 54 195 220 168 219 155 7 204 209 167 141 240 199 221 67 129 200 117 17 93 133 222 106 29 42 182 232 159 109 36 80 92 77 166 52 98 229 211 58 194 201 148 158 212 123 198 197 248 244 150 110 18
b 66 14 78 44 33 48 235 9 126 115 34 132 8 31 227 154 56 84 72 28 190 65 217 131 210 245 74 102 101 163 136 86 69 134 161 181 1 223 43 208 130 116 145 203 153 79 105 178 140 193 54 96 195 220 168 219 155 7 204 209 167 141 240 199 221 67 129 200 117 17 93 133 222 106 29 42 182 232 159 109 36 80 92 77 166 52 98 229 211 58 194 201 148 158 212 123 198 197 248 244 150 110 18
b 67 44 33 48 235 9 126 115 34 132 8 31 227 154 56 84 72 28 190 65 217 131 210 245 74 102 101 163 136 86 69 134 161 181 1 223 43 208 130 116 145 203 153 79 105 178 95 140 193 54 96 195 220 168 219 155 7 204 209 167 141 240 199 221 67 129 200 117 17 93 133 222 106 29 42 182 232 159 109 36 80 92 77 166 52 98 229 211 58 194 201 148 158 212 123 198 197 248 244 150 110 18
b 68 33 48 235 9 126 115 34 132 40 8 31 227 154 56 84 72 28 190 65 217 131 210 245 74 102 101 163 136 86 69 134 161 181 1 223 43 208 130 116 145 203 153 79 105 178 95 140 193 54 96 195 220 168 219 155 7 204 209 167 141 240 199 221 67 129 200 117 17 93 133 222 106 29 42 182 232 159 109 36 80 92 77 166 52 98 229 211 58 194 201 148 158 212 123 198 197 248 244 150 110 18
b 69 48 235 9 126 115 34 132 40 8 31 113 227 154 56 84 72 28 190 65 217 131 210 245 74 102 101 163 136 86 69 134 161 181 1 223 43 208 130 116 145 203 153 79 105 178 95 140 193 54 96 195 220 168 219 155 7 204 209 167 141 240 199 221 67 129 200 117 17 93 133 222 106 29 42 182 232 159 109 36 80 92 77 166 52 98 229 211 58 194 201 148 158 212 123 198 197 248 244 150 110 18
b 70 218 238 59 175 32 163 130 141 221
b 71 238 125 59 175 32 227 163 130 141 221 200 98 150
b 72 125 27 57 59 175 32 227 190 217 163 43 130 54 141 221 200 42 98 150
b 73 27 25 57 59 175 32 9 126 227 190 217 210 163 43 130 54 141 221 200 106 42 98 158 150 110
b 74 25 57 183 59 175 32 9 126 227 56 190 217 210 163 1 43 130 79 140 54 195 141 221 200 106 42 98 211 158 150 110
b 75 243 214 59 235 210 140
b 76 2 214 80 77 229 58 197
b 77 214 16 59 216 41 235 8 72 65 210 140 67 159 80 77 229 58 197
b 78 66 186 57 145 79
b 79 186 16 57 216 145 79 96 106 166
b 80 16 226 57 183 59 216 41 235 8 72 65 210 223 145 79 140 96 220 168 67 106 159 80 77 166 229 58 197
b 81 226 111 57 183 59 216 41 235 8 113 72 65 210 163 223 145 79 140 96 220 168 67 129 106 159 80 77 166 180 229 58 197
b 82 111 57 183 59 216 68 41 235 8 113 72 65 210 163 223 145 79 140 96 220 168 67 129 106 159 80 77 166 180 229 58 197
b 83 46 45 57 175 40 190 86 7 77 148 158
b 84 45 57 175 126 40 154 190 86 7 77 148 158
b 85 57 183 59 175 32 216 68 41 235 9 126 40 8 113 227 154 56 72 190 65 217 210 74 163 86 1 223 43 130 145 79 140 54 96 195 220 168 155 7 141 221 67 129 200 106 42 159 80 77 166 180 98 229 211 58 148 158 198 197 150 110
b 86 183 59 175 32 216 68 41 235 9 126 115 40 8 113 227 154 56 72 190 65 217 210 74 163 86 1 223 43 130 145 79 140 54 96 195 220 168 155 7 141 221 67 129 200 106 42 159 80 77 166 180 98 229 211 58 148 158 198 197 150 110
b 87 19 59 132 148
b 88 230 47 227 195 7 17
b 89 241 47 128 132 72 217 93 29 194
b 90 47 147 59 128 126 132 113 227 72 217 134 195 155 7 17 93 29 194
b 91 147 225 59 128 5 126 132 113 227 72 217 134 195 155 7 204 200 17 93 29 159 194
b 92 225 59 32 128 5 126 132 31 113 227 72 217 134 95 195 155 7 204 200 17 93 29 159 194 248
b 93 121 59 235 40 163 145 117
b 94 59 175 32 128 216 68 5 41 235 9 126 115 132 40 8 31 113 227 154 56 84 72 190 65 217 210 74 163 86 134 1 223 43 130 145 79 95 140 54 96 195 220 168 155 7 204 141 221 67 129 200 117 17 93 106 29 42 159 80 77 166 180 98 229 211 58 194 148 158 198 197 248 150 110
b 95 35 104 203 117
b 96 104 118 152 5 84 203 117 150 110 18
b 97 149 118 174 41 131 130 203 96 212
b 98 118 20 174 152 5 41 84 131 136 130 203 96 117 222 212 197 150 110 18
b 99 82 108 8 167
b 100 108 20 13 128 216 8 208 168 167 200
b 101 20 103 13 174 152 128 216 5 41 8 31 84 131 136 208 130 203 193 96 168 167 200 117 222 212 197 150 110 18
b 102 103 13 174 152 175 128 216 5 41 8 31 84 131 136 208 130 203 193 96 168 167 200 117 222 212 197 150 110 18
b 103 185 164 128 154 223 153 42 232
b 104 191 114 32 101 200 158
b 105 114 164 120 174 32 101 7 200 222 58 158
b 106 164 15 120 13 174 32 128 154 74 101 181 223 208 153 7 200 222 42 232 58 158 197
b 107 15 120 13 174 175 32 128 68 34 154 28 74 101 161 181 223 208 153 54 7 67 200 117 93 222 42 232 36 58 158 197
b 108 246 169 120 210 141 92 229
b 109 169 120 5 41 72 131 210 223 141 80 92 229
b 110 120 13 174 175 32 128 68 5 41 115 34 154 72 28 131 210 74 101 161 181 223 208 153 54 7 141 67 200 117 93 222 42 232 36 80 92 180 229 211 58 158 197
b 111 237 13 8 208 145 77
b 112 13 174 152 175 32 128 216 68 5 41 115 34 8 31 154 84 72 28 131 210 74 101 136 161 181 223 208 130 145 203 153 193 54 96 168 7 167 141 67 200 117 93 222 42 182 232 36 80 92 77 180 229 211 58 158 212 197 150 110 18
b 113 73 76 32 131 195 123
b 114 30 76 128 155 7 167 211 148 197
b 115 89 76 152 115 245 102 1 43 153 129 232 58 194
b 116 76 12 152 32 128 115 131 245 102 1 43 153 79 195 155 7 167 129 182 232 211 58 194 148 123 197
b 117 12 91 174 152 32 128 115 131 245 102 1 43 153 79 195 155 7 209 167 129 117 222 182 232 211 58 194 148 123 197 18
b 118 91 174 152 32 128 115 31 190 131 245 102 1 43 153 79 195 155 7 209 167 67 129 200 117 222 106 182 232 211 58 194 148 123 197 18
b 119 112 174 126 115 65
b 120 174 152 175 32 128 216 68 5 41 126 115 34 8 31 154 84 72 28 190 65 131 210 245 74 102 101 163 136 161 181 1 223 43 208 130 145 203 153 79 193 54 96 195 168 155 7 209 167 141 67 129 200 117 93 222 106 42 182 232 36 80 92 77 180 229 211 58 194 148 158 212 123 197 150 110 18
b 121 247 97 68 41 134 180
b 122 81 213 190 163 182 77 158 18
b 123 213 71 175 5 113 190 163 116 95 42 182 77 166 158 244 18
b 124 71 239 175 5 113 190 163 116 105 95 7 42 182 77 166 158 244 18
b 125 202 239 128 5 140 219 77
b 126 239 97 175 128 216 5 113 190 163 69 116 145 105 95 140 219 7 133 42 182 77 166 229 158 244 18
b 127 97 207 175 128 216 68 5 41 113 190 101 163 69 134 116 145 79 105 95 140 195 219 7 133 42 182 77 166 180 229 158 244 18
b 128 207 75 175 128 216 68 5 41 132 113 190 101 163 69 134 161 1 116 145 79 105 95 140 195 219 7 133 42 182 36 77 166 180 229 158 244 18
b 129 75 152 175 128 216 68 5 41 132 113 84 190 101 163 69 134 161 1 116 145 203 79 105 95 140 195 219 7 133 42 182 36 77 166 180 229 158 244 18
b 130 152 175 32 128 216 68 5 41 126 115 34 132 8 31 113 154 84 72 28 190 65 131 210 245 74 102 101 163 136 69 134 161 181 1 223 43 208 130 116 145 203 153 79 105 95 140 193 54 96 195 168 219 155 7 209 167 141 67 129 200 117 93 133 222 106 42 182 232 36 80 92 77 166 180 229 211 58 194 148 158 212 123 197 244 150 110 18
b 131 184 94 68 227 245 168 80
b 132 94 90 68 227 245 136 168 67 93 80 58 18
b 133 90 216 68 115 227 56 245 136 95 168 221 67 93 80 58 123 18
b 134 189 68 227 129 182 18
b 135 157 5 235 126 115 167 201
b 136 175 32 128 216 68 5 41 235 9 126 115 34 132 40 8 31 113 227 154 56 84 72 28 190 65 217 131 210 245 74 102 101 163 136 86 69 134 161 181 1 223 43 208 130 116 145 203 153 79 105 95 140 193 54 96 195 220 168 219 155 7 204 209 167 141 199 221 67 129 200 117 17 93 133 222 106 29 42 182 232 159 36 80 92 77 166 180 98 229 211 58 194 148 158 212 123 198 197 248 244 150 110 18
b 137 128 216 68 5 41 235 9 126 115 34 132 40 8 31 113 227 154 56 84 72 28 190 65 217 131 210 245 74 102 101 163 136 86 69 134 161 181 1 223 43 208 130 116 145 203 153 79 105 95 140 193 54 96 195 220 168 219 155 7 204 209 167 141 240 199 221 67 129 200 117 17 93 133 222 106 29 42 182 232 159 36 80 92 77 166 180 98 229 211 58 194 148 158 212 123 198 197 248 244 150 110 18
b 138 216 68 5 41 235 9 126 115 34 132 40 8 31 113 227 154 56 84 72 28 190 65 217 131 210 245 74 102 101 163 136 86 69 134 161 181 1 223 43 208 130 116 145 203 153 79 105 178 95 140 193 54 96 195 220 168 219 155 7 204 209 167 141 240 199 221 67 129 200 117 17 93 133 222 106 29 42 182 232 159 109 36 80 92 77 166 52 180 98 229 211 58 194 148 158 212 123 198 197 248 244 150 110 18
b 139 5 41 235 9 126 115 34 132 40 8 31 113 227 154 56 84 72 28 190 65 217 131 210 245 74 102 101 163 136 86 69 134 161 181 1 223 43 208 130 116 145 203 153 79 105 178 95 140 193 54 96 195 220 168 219 155 7 204 209 167 141 240 199 221 67 129 200 117 17 93 133 222 106 29 42 182 232 159 109 36 80 92 77 166 52 180 98 229 211 58 194 201 148 158 212 123 198 197 248 244 150 110 18
b 140 156 132 223 92 180 229 198
1 36
36 42
42 43
43 44
44 45
45 61
61 62
62 63
63 64
64 65
65 66
66 67
67 68
68 69
69 139
139 138
138 137
137 136
63 35
136 130
35 34
130 120
136 94
34 31
94 86
86 85
120 112
31 30
34 16
16 15
15 14
30 29
14 13
61 60
13 12
60 59
112 110
12 10
130 129
129 128
120 118
29 28
10 8
128 127
85 82
82 81
85 74
59 56
110 107
118 117
112 102
102 101
81 80
8 7
127 126
117 116
42 41
94 92
74 73
56 55
92 91
107 106
101 98
73 72
55 53
28 27
80 77
91 90
126 124
29 20
138 133
28 23
7 5
124 123
23 22
41 40
29 18
116 115
72 71
27 26
59 48
133 132
110 109
85 84
106 105
53 52
48 47
26 25
84 83
7 6
98 96
20 19
101 100
80 79
116 114
98 97
90 89
71 70
22 21
40 39
18 17
123 122
106 103
12 11
25 24
109 108
139 140
77 76
132 131
42 37
139 135
126 125
35 33
94 93
5 4
59 58
10 9
116 113
53 50
77 75
90 88
105 104
52 51
47 46
136 134
127 121
112 111
56 49
41 38
79 78
34 32
120 119
59 57
94 87
100 99
55 54
96 95
88 3
33 2
